<?xml version = "1.0" standalone="yes"?>
<!-- This file has been generated by DOcplex version 2.23.222  -->
<CPLEXSolution version="1.0">
 <header
   problemName="CVRP"
   objectiveValue="13289.2"
  />
 <variables>
  <variable name="x_0_1" index="0" value="1.00000"/>
  <variable name="x_0_3" index="2" value="1.00000"/>
  <variable name="x_0_6" index="5" value="1.00000"/>
  <variable name="x_0_8" index="7" value="1.00000"/>
  <variable name="x_0_9" index="8" value="1.00000"/>
  <variable name="x_0_10" index="9" value="1.00000"/>
  <variable name="x_0_13" index="12" value="1.00000"/>
  <variable name="x_0_15" index="14" value="1.00000"/>
  <variable name="x_0_16" index="15" value="1.00000"/>
  <variable name="x_0_18" index="17" value="1.00000"/>
  <variable name="x_0_21" index="20" value="1.00000"/>
  <variable name="x_1_23" index="45" value="1.00000"/>
  <variable name="x_2_0" index="46" value="1.00000"/>
  <variable name="x_3_11" index="79" value="1.00000"/>
  <variable name="x_4_0" index="92" value="1.00000"/>
  <variable name="x_5_0" index="115" value="1.00000"/>
  <variable name="x_6_22" index="159" value="1.00000"/>
  <variable name="x_7_0" index="161" value="1.00000"/>
  <variable name="x_8_5" index="189" value="1.00000"/>
  <variable name="x_9_14" index="220" value="1.00000"/>
  <variable name="x_10_0" index="230" value="1.00000"/>
  <variable name="x_11_0" index="253" value="1.00000"/>
  <variable name="x_12_0" index="276" value="1.00000"/>
  <variable name="x_13_20" index="318" value="1.00000"/>
  <variable name="x_14_0" index="322" value="1.00000"/>
  <variable name="x_15_0" index="345" value="1.00000"/>
  <variable name="x_16_12" index="380" value="1.00000"/>
  <variable name="x_17_0" index="391" value="1.00000"/>
  <variable name="x_18_7" index="421" value="1.00000"/>
  <variable name="x_19_2" index="439" value="1.00000"/>
  <variable name="x_20_0" index="460" value="1.00000"/>
  <variable name="x_21_17" index="500" value="1.00000"/>
  <variable name="x_22_19" index="525" value="1.00000"/>
  <variable name="x_23_4" index="533" value="1.00000"/>
  <variable name="u_1" index="552" value="11.00000"/>
  <variable name="u_2" index="553" value="56.00000"/>
  <variable name="u_3" index="554" value="27.00000"/>
  <variable name="u_4" index="555" value="58.00000"/>
  <variable name="u_5" index="556" value="53.00000"/>
  <variable name="u_6" index="557" value="1.00000"/>
  <variable name="u_7" index="558" value="58.00000"/>
  <variable name="u_8" index="559" value="49.00000"/>
  <variable name="u_9" index="560" value="27.00000"/>
  <variable name="u_10" index="561" value="54.00000"/>
  <variable name="u_11" index="562" value="58.00000"/>
  <variable name="u_12" index="563" value="57.00000"/>
  <variable name="u_13" index="564" value="44.00000"/>
  <variable name="u_14" index="565" value="52.00000"/>
  <variable name="u_15" index="566" value="58.00000"/>
  <variable name="u_16" index="567" value="39.00000"/>
  <variable name="u_17" index="568" value="48.00000"/>
  <variable name="u_18" index="569" value="14.00000"/>
  <variable name="u_19" index="570" value="32.00000"/>
  <variable name="u_20" index="571" value="58.00000"/>
  <variable name="u_21" index="572" value="37.00000"/>
  <variable name="u_22" index="573" value="21.00000"/>
  <variable name="u_23" index="574" value="54.00000"/>
 </variables>
</CPLEXSolution>
